10
20
1020005
0
0
90 36 21 6 29 18 65 86 5 61 70 32 52 32 32 48 72 82 17 21 
1
0
90 35 16 10 25 26 68 87 14 53 71 28 56 31 24 45 71 81 22 16 
2
0
93 28 22 10 26 25 70 90 12 53 75 36 55 40 25 46 77 88 15 18 
3
0
91 36 18 9 24 26 73 85 7 54 72 32 50 36 33 47 74 83 15 15 
4
0
93 35 18 5 28 24 75 83 12 54 74 36 51 32 29 54 74 84 22 15 
5
0
96 29 16 7 24 26 74 91 12 61 75 28 49 33 33 51 75 87 15 20 
6
0
92 37 21 14 27 20 69 86 8 62 74 34 51 35 33 49 76 80 22 20 
7
0
96 31 20 6 20 18 76 87 8 63 76 36 54 40 28 47 72 80 22 19 
8
0
93 35 20 7 23 26 66 89 4 58 72 36 55 31 28 45 74 84 22 22 
9
0
88 34 15 12 19 24 68 91 14 55 74 27 55 34 33 50 76 85 13 15 
